db/data/181126287230413462249532313190032757.z3.out
sat
-------------------
946.088081448
